17 -1 2 0 -6 -4 4 10 -8 -2 2 12 -1 1 11 -7 -3 3 9 -5 0
17 d 10 12 11 9 0
18 -2 3 0 -4 -17 17 15 16 -2 2 6 -1 1 5 -3 0
18 d 15 16 0
19 -1 0 17 18 14 13 0
19 d 17 18 14 13 0
20 -2 1 0 -2 19 2 6 -4 19 4 8 -1 19 1 5 -3 19 3 7 0
20 d 6 8 5 7 0
21 3 1 0 19 20 1 2 0
21 d 1 2 0
22 0 19 20 21 3 4 0
22 d 19 20 21 3 4 0
